NAME : n40w80.005.344.tour
COMMENT : Length = 344
COMMENT : Found by LKH [Keld Helsgaun] Tue May  2 05:18:26 2017
TYPE : TOUR
DIMENSION : 41
TOUR_SECTION
1
30
31
10
17
38
35
9
15
7
33
23
26
8
3
13
29
19
28
5
22
4
24
2
21
39
16
18
34
20
14
27
11
36
40
25
41
6
12
32
37
-1
EOF
